models/minizinc/2008/debruijn_binary.fzn
% Generated by MiniZinc 2.9.3
% Solver library: /opt/homebrew/Cellar/minizinc/2.9.3/share/minizinc/gecode_presolver
% Command line invocation: minizinc --solver org.gecode --compile debruijn_binary.mzn 02_03.dzn -o debruijn_binary.fzn 

predicate gecode_all_different_int(array [int] of var int: x);
predicate array_int_minimum(var int: m,array [int] of var int: x);
predicate fzn_global_cardinality(array [int] of var int: x,array [int] of int: cover,array [int] of var int: counts);
array [1..4] of int: X_INTRODUCED_68_ = [1,-4,-2,-1];
array [1..2] of int: X_INTRODUCED_118_ = [0,1];
var 0..7: X_INTRODUCED_16_:: is_defined_var;
var 0..7: X_INTRODUCED_17_:: is_defined_var;
var 0..7: X_INTRODUCED_18_:: is_defined_var;
var 0..7: X_INTRODUCED_19_:: is_defined_var;
var 0..7: X_INTRODUCED_20_:: is_defined_var;
var 0..7: X_INTRODUCED_21_:: is_defined_var;
var 0..7: X_INTRODUCED_22_:: is_defined_var;
var 0..7: X_INTRODUCED_23_:: is_defined_var;
var int: X_INTRODUCED_57_;
var 0..1: X_INTRODUCED_60_ ::var_is_introduced ;
var 0..1: X_INTRODUCED_70_ ::var_is_introduced ;
var 0..1: X_INTRODUCED_77_ ::var_is_introduced ;
var 0..1: X_INTRODUCED_84_ ::var_is_introduced ;
var 0..1: X_INTRODUCED_91_ ::var_is_introduced ;
var 0..1: X_INTRODUCED_98_ ::var_is_introduced ;
var 0..1: X_INTRODUCED_105_ ::var_is_introduced ;
var 0..1: X_INTRODUCED_112_ ::var_is_introduced ;
array [1..8] of var int: x:: output_array([1..8]) = [X_INTRODUCED_16_,X_INTRODUCED_17_,X_INTRODUCED_18_,X_INTRODUCED_19_,X_INTRODUCED_20_,X_INTRODUCED_21_,X_INTRODUCED_22_,X_INTRODUCED_23_];
array [1..24] of var int: X_INTRODUCED_24_:: output_array([1..24]) = [X_INTRODUCED_60_,X_INTRODUCED_70_,X_INTRODUCED_77_,X_INTRODUCED_70_,X_INTRODUCED_77_,X_INTRODUCED_84_,X_INTRODUCED_77_,X_INTRODUCED_84_,X_INTRODUCED_91_,X_INTRODUCED_84_,X_INTRODUCED_91_,X_INTRODUCED_98_,X_INTRODUCED_91_,X_INTRODUCED_98_,X_INTRODUCED_105_,X_INTRODUCED_98_,X_INTRODUCED_105_,X_INTRODUCED_112_,X_INTRODUCED_105_,X_INTRODUCED_112_,X_INTRODUCED_60_,X_INTRODUCED_112_,X_INTRODUCED_60_,X_INTRODUCED_70_];
array [1..8] of var int: bin_code:: output_array([1..8]) = [X_INTRODUCED_60_,X_INTRODUCED_70_,X_INTRODUCED_77_,X_INTRODUCED_84_,X_INTRODUCED_91_,X_INTRODUCED_98_,X_INTRODUCED_105_,X_INTRODUCED_112_];
array [1..2] of var int: gcc:: output_array([1..2]) = [X_INTRODUCED_57_,X_INTRODUCED_57_];
constraint gecode_all_different_int(x);
constraint array_int_minimum(X_INTRODUCED_16_,x);
constraint int_lin_eq(X_INTRODUCED_68_,[X_INTRODUCED_16_,X_INTRODUCED_60_,X_INTRODUCED_70_,X_INTRODUCED_77_],0):: defines_var(X_INTRODUCED_16_);
constraint int_lin_eq(X_INTRODUCED_68_,[X_INTRODUCED_17_,X_INTRODUCED_70_,X_INTRODUCED_77_,X_INTRODUCED_84_],0):: defines_var(X_INTRODUCED_17_);
constraint int_lin_eq(X_INTRODUCED_68_,[X_INTRODUCED_18_,X_INTRODUCED_77_,X_INTRODUCED_84_,X_INTRODUCED_91_],0):: defines_var(X_INTRODUCED_18_);
constraint int_lin_eq(X_INTRODUCED_68_,[X_INTRODUCED_19_,X_INTRODUCED_84_,X_INTRODUCED_91_,X_INTRODUCED_98_],0):: defines_var(X_INTRODUCED_19_);
constraint int_lin_eq(X_INTRODUCED_68_,[X_INTRODUCED_20_,X_INTRODUCED_91_,X_INTRODUCED_98_,X_INTRODUCED_105_],0):: defines_var(X_INTRODUCED_20_);
constraint int_lin_eq(X_INTRODUCED_68_,[X_INTRODUCED_21_,X_INTRODUCED_98_,X_INTRODUCED_105_,X_INTRODUCED_112_],0):: defines_var(X_INTRODUCED_21_);
constraint int_lin_eq(X_INTRODUCED_68_,[X_INTRODUCED_22_,X_INTRODUCED_105_,X_INTRODUCED_112_,X_INTRODUCED_60_],0):: defines_var(X_INTRODUCED_22_);
constraint int_lin_eq(X_INTRODUCED_68_,[X_INTRODUCED_23_,X_INTRODUCED_112_,X_INTRODUCED_60_,X_INTRODUCED_70_],0):: defines_var(X_INTRODUCED_23_);
constraint fzn_global_cardinality(bin_code,X_INTRODUCED_118_,gcc);
solve :: int_search(x,first_fail,indomain_split,complete) satisfy;
